33D32945 STP File, STP Format Version 1.0

SECTION Comment
Name    "B01"
Creator "J. E. Beasley"
Remark  "Sparse graph with random weights"
END

SECTION Graph
Nodes 4
Edges 3
E 1 2 2
E 2 3 3
E 3 4 4
END

SECTION Terminals
Terminals 2
T 1
T 4
END

EOF
